NAME: ftv33
TYPE: ATSP
COMMENT: Asymmetric TSP (Fischetti)
DIMENSION: 5
EDGE_WEIGHT_TYPE: EXPLICIT
EDGE_WEIGHT_FORMAT: FULL_MATRIX 
EDGE_WEIGHT_SECTION
   100000000	10	8	3	2	6	100000000	5	7	10	1	2	100000000	4	6	7	3	8	100000000	5	3	5	1	7	100000000
EOF
